0
Node Left Objective IInf Best_Integer Best_Bound ItCnt Gap
0+ 0 nan nan 883.5817 0.0000 nan 100.00%
0+ 0 nan nan 639.6325 0.0000 nan 100.00%
0 0 262.6193 7 639.6325 262.6193 42 58.94%
0+ 0 nan nan 542.0395 262.6193 nan 51.55%
0 2 262.6193 7 542.0395 262.6193 42 51.55%
CPXPARAM_MIP_Cuts_Cliques 0
1
Node Left Objective IInf Best_Integer Best_Bound ItCnt Gap
0+ 0 nan nan 883.5817 0.0000 nan 100.00%
0 0 0 262.6193 262.6193 40 0.00% 0
CPXPARAM_MIP_Cuts_Cliques 0
2
Node Left Objective IInf Best_Integer Best_Bound ItCnt Gap
0+ 0 nan nan 883.5817 0.0000 nan 100.00%
0+ 0 nan nan 639.6325 0.0000 nan 100.00%
0 0 269.4766 5 639.6325 269.4766 42 57.87%
0 2 269.4766 5 639.6325 269.4766 42 57.87%
CPXPARAM_MIP_Cuts_Cliques 0
3
Node Left Objective IInf Best_Integer Best_Bound ItCnt Gap
0+ 0 nan nan 883.5817 0.0000 nan 100.00%
0 0 314.8220 1 883.5817 314.8220 38 64.37%
0+ 0 nan nan 315.1239 314.8220 nan 0.10%
0+ 0 nan nan 314.8876 314.8220 nan 0.02%
0 0 cutoff 314.8876 314.8220 40 0.02% 0
CPXPARAM_MIP_Cuts_Cliques 0
4
Node Left Objective IInf Best_Integer Best_Bound ItCnt Gap
0+ 0 nan nan 693.8542 0.0000 nan 100.00%
0+ 0 nan nan 634.5912 0.0000 nan 100.00%
0 0 405.5114 7 634.5912 405.5114 50 36.10%
0+ 0 nan nan 557.8185 405.5114 nan 27.30%
0+ 0 nan nan 557.0696 405.5114 nan 27.21%
0 2 405.5114 7 557.0696 405.5114 50 27.21%
CPXPARAM_MIP_Cuts_Cliques 0
5
Node Left Objective IInf Best_Integer Best_Bound ItCnt Gap
0+ 0 nan nan 693.8542 0.0000 nan 100.00%
0 0 405.5114 1 693.8542 405.5114 49 41.56%
0+ 0 nan nan 407.3057 405.5114 nan 0.44%
0 0 0 405.9187 405.9187 52 0.00% 0
CPXPARAM_MIP_Cuts_Cliques 0
6
Node Left Objective IInf Best_Integer Best_Bound ItCnt Gap
0+ 0 nan nan 693.8542 0.0000 nan 100.00%
0+ 0 nan nan 652.0517 0.0000 nan 100.00%
0+ 0 nan nan 648.3061 0.0000 nan 100.00%
0 0 405.5114 7 648.3061 405.5114 44 37.45%
0+ 0 nan nan 570.3280 405.5114 nan 28.90%
0 2 405.5114 7 570.3280 405.5114 44 28.90%
CPXPARAM_MIP_Cuts_Cliques 0
7
Node Left Objective IInf Best_Integer Best_Bound ItCnt Gap
0+ 0 nan nan 693.8542 0.0000 nan 100.00%
0 0 0 425.0746 425.0746 34 0.00% 0
CPXPARAM_MIP_Cuts_Cliques 0
8
Node Left Objective IInf Best_Integer Best_Bound ItCnt Gap
0+ 0 nan nan 845.6683 0.0000 nan 100.00%
0+ 0 nan nan 648.8417 0.0000 nan 100.00%
0 0 484.8467 7 648.8417 484.8467 54 25.28%
0 2 484.8467 7 648.8417 484.8467 54 25.28%
CPXPARAM_MIP_Cuts_Cliques 0
9
Node Left Objective IInf Best_Integer Best_Bound ItCnt Gap
0+ 0 nan nan 845.6683 0.0000 nan 100.00%
0 0 0 484.8467 484.8467 43 0.00% 0
CPXPARAM_MIP_Cuts_Cliques 0
10
Node Left Objective IInf Best_Integer Best_Bound ItCnt Gap
0+ 0 nan nan 845.6683 0.0000 nan 100.00%
0 0 498.6071 5 845.6683 498.6071 38 41.04%
0+ 0 nan nan 697.1349 498.6071 nan 28.48%
0+ 0 nan nan 695.2244 498.6071 nan 28.28%
0+ 0 nan nan 631.7880 498.6071 nan 21.08%
0 2 498.6071 5 631.7880 498.6071 38 21.08%
CPXPARAM_MIP_Cuts_Cliques 0
11
Node Left Objective IInf Best_Integer Best_Bound ItCnt Gap
0+ 0 nan nan 845.6683 0.0000 nan 100.00%
0 0 0 561.1585 561.1585 45 0.00% 0
CPXPARAM_MIP_Cuts_Cliques 0
12
Node Left Objective IInf Best_Integer Best_Bound ItCnt Gap
0+ 0 nan nan 656.4681 0.0000 nan 100.00%
0+ 0 nan nan 534.4657 0.0000 nan 100.00%
0 0 386.2283 7 534.4657 386.2283 47 27.74%
0+ 0 nan nan 527.9269 386.2283 nan 26.84%
0 2 386.2283 7 527.9269 386.2283 47 26.84%
CPXPARAM_MIP_Cuts_Cliques 0
13
Node Left Objective IInf Best_Integer Best_Bound ItCnt Gap
0+ 0 nan nan 656.4681 0.0000 nan 100.00%
0 0 0 389.1110 389.1110 45 0.00% 0
CPXPARAM_MIP_Cuts_Cliques 0
14
Node Left Objective IInf Best_Integer Best_Bound ItCnt Gap
0+ 0 nan nan 656.4681 0.0000 nan 100.00%
0+ 0 nan nan 534.4657 0.0000 nan 100.00%
0 0 386.2283 7 534.4657 386.2283 36 27.74%
0+ 0 nan nan 527.9269 386.2283 nan 26.84%
0 2 386.2283 7 527.9269 386.2283 36 26.84%
CPXPARAM_MIP_Cuts_Cliques 0
15
Node Left Objective IInf Best_Integer Best_Bound ItCnt Gap
0+ 0 nan nan 656.4681 0.0000 nan 100.00%
0 0 0 410.1756 410.1756 35 0.00% 0
CPXPARAM_MIP_Cuts_Cliques 0
16
Node Left Objective IInf Best_Integer Best_Bound ItCnt Gap
0+ 0 nan nan 673.4267 0.0000 nan 100.00%
0+ 0 nan nan 482.5302 0.0000 nan 100.00%
0 0 417.5617 7 482.5302 417.5617 54 13.46%
0+ 0 nan nan 465.0575 417.5617 nan 10.21%
0 2 417.5617 7 465.0575 417.5617 54 10.21%
CPXPARAM_MIP_Cuts_Cliques 0
17
Node Left Objective IInf Best_Integer Best_Bound ItCnt Gap
0+ 0 nan nan 673.4267 0.0000 nan 100.00%
0 0 0 425.9937 425.9937 45 0.00% 0
CPXPARAM_MIP_Cuts_Cliques 0
18
Node Left Objective IInf Best_Integer Best_Bound ItCnt Gap
0+ 0 nan nan 673.4267 0.0000 nan 100.00%
0 0 423.0032 5 673.4267 423.0032 39 37.19%
0+ 0 nan nan 591.6412 423.0032 nan 28.50%
0+ 0 nan nan 502.0362 423.0032 nan 15.74%
0+ 0 nan nan 475.1344 423.0032 nan 10.97%
0 2 423.0032 5 475.1344 423.0032 39 10.97%
CPXPARAM_MIP_Cuts_Cliques 0
19
Node Left Objective IInf Best_Integer Best_Bound ItCnt Gap
0+ 0 nan nan 673.4267 0.0000 nan 100.00%
0+ 0 nan nan 448.7922 0.0000 nan 100.00%
0 0 0 446.2379 446.2379 37 0.00% 0
CPXPARAM_MIP_Cuts_Cliques 0
20
Node Left Objective IInf Best_Integer Best_Bound ItCnt Gap
0+ 0 nan nan 525.1284 0.0000 nan 100.00%
0+ 0 nan nan 499.7053 0.0000 nan 100.00%
0 0 283.8374 7 499.7053 283.8374 45 43.20%
0+ 0 nan nan 335.4671 283.8374 nan 15.39%
0+ 0 nan nan 331.4363 283.8374 nan 14.36%
0 2 283.8374 7 331.4363 283.8374 45 14.36%
CPXPARAM_MIP_Cuts_Cliques 0
21
Node Left Objective IInf Best_Integer Best_Bound ItCnt Gap
0+ 0 nan nan 525.1284 0.0000 nan 100.00%
0 0 0 283.8374 283.8374 44 0.00% 0
CPXPARAM_MIP_Cuts_Cliques 0
22
Node Left Objective IInf Best_Integer Best_Bound ItCnt Gap
0+ 0 nan nan 525.1284 0.0000 nan 100.00%
0+ 0 nan nan 502.7786 0.0000 nan 100.00%
0 0 286.9244 7 502.7786 286.9244 33 42.93%
0+ 0 nan nan 406.3795 286.9244 nan 29.39%
0+ 0 nan nan 315.4732 286.9244 nan 9.05%
0 2 286.9244 7 315.4732 286.9244 33 9.05%
CPXPARAM_MIP_Cuts_Cliques 0
23
Node Left Objective IInf Best_Integer Best_Bound ItCnt Gap
0+ 0 nan nan 525.1284 0.0000 nan 100.00%
0 0 0 293.4740 293.4740 26 0.00% 0
CPXPARAM_MIP_Cuts_Cliques 0
24
Node Left Objective IInf Best_Integer Best_Bound ItCnt Gap
0+ 0 nan nan 549.2671 0.0000 nan 100.00%
0+ 0 nan nan 473.7492 0.0000 nan 100.00%
0 0 363.2658 7 473.7492 363.2658 42 23.32%
0+ 0 nan nan 458.3613 363.2658 nan 20.75%
0+ 0 nan nan 396.1684 363.2658 nan 8.31%
0 2 363.2658 7 396.1684 363.2658 42 8.31%
CPXPARAM_MIP_Cuts_Cliques 0
25
Node Left Objective IInf Best_Integer Best_Bound ItCnt Gap
0+ 0 nan nan 549.2671 0.0000 nan 100.00%
0 0 0 372.4575 372.4575 43 0.00% 0
CPXPARAM_MIP_Cuts_Cliques 0
26
Node Left Objective IInf Best_Integer Best_Bound ItCnt Gap
0+ 0 nan nan 549.2671 0.0000 nan 100.00%
0+ 0 nan nan 476.4585 0.0000 nan 100.00%
0 0 372.1627 6 476.4585 372.1627 30 21.89%
0 2 372.1627 6 476.4585 372.1627 30 21.89%
CPXPARAM_MIP_Cuts_Cliques 0
27
Node Left Objective IInf Best_Integer Best_Bound ItCnt Gap
0+ 0 nan nan 549.2671 0.0000 nan 100.00%
0 0 0 385.0255 385.0255 33 0.00% 0
CPXPARAM_MIP_Cuts_Cliques 0
28
Node Left Objective IInf Best_Integer Best_Bound ItCnt Gap
0+ 0 nan nan 941.7205 0.0000 nan 100.00%
0+ 0 nan nan 872.5219 0.0000 nan 100.00%
0 0 601.4591 6 872.5219 601.4591 44 31.07%
0+ 0 nan nan 737.8283 601.4591 nan 18.48%
0+ 0 nan nan 728.9614 601.4591 nan 17.49%
0 2 601.4591 6 728.9614 601.4591 44 17.49%
CPXPARAM_MIP_Cuts_Cliques 0
29
Node Left Objective IInf Best_Integer Best_Bound ItCnt Gap
0+ 0 nan nan 941.7205 0.0000 nan 100.00%
0 0 0 596.9704 596.9704 48 0.00% 0
CPXPARAM_MIP_Cuts_Cliques 0
30
Node Left Objective IInf Best_Integer Best_Bound ItCnt Gap
0+ 0 nan nan 941.7205 0.0000 nan 100.00%
0+ 0 nan nan 877.2624 0.0000 nan 100.00%
0 0 601.4591 6 877.2624 601.4591 46 31.44%
0+ 0 nan nan 696.2579 601.4591 nan 13.62%
0+ 0 nan nan 694.9196 601.4591 nan 13.45%
0 2 601.4591 6 694.9196 601.4591 46 13.45%
CPXPARAM_MIP_Cuts_Cliques 0
31
Node Left Objective IInf Best_Integer Best_Bound ItCnt Gap
0+ 0 nan nan 941.7205 0.0000 nan 100.00%
0 0 0 601.4591 601.4591 41 0.00% 0
CPXPARAM_MIP_Cuts_Cliques 0
32
Node Left Objective IInf Best_Integer Best_Bound ItCnt Gap
0+ 0 nan nan 671.2898 0.0000 nan 100.00%
0+ 0 nan nan 538.6067 0.0000 nan 100.00%
0 0 285.1772 7 538.6067 285.1772 48 47.05%
0+ 0 nan nan 527.4518 285.1772 nan 45.93%
0+ 0 nan nan 456.5074 285.1772 nan 37.53%
0 2 285.1772 7 456.5074 285.1772 48 37.53%
CPXPARAM_MIP_Cuts_Cliques 0
33
Node Left Objective IInf Best_Integer Best_Bound ItCnt Gap
0+ 0 nan nan 671.2898 0.0000 nan 100.00%
0 0 304.9439 1 671.2898 304.9439 48 54.57%
0+ 0 nan nan 305.0518 304.9439 nan 0.04%
0 0 0 304.9870 304.9439 50 0.01%
0 0 304.9870 0 304.9870 304.9870 50 0.00%
CPXPARAM_MIP_Cuts_Cliques 0
34
Node Left Objective IInf Best_Integer Best_Bound ItCnt Gap
0+ 0 nan nan 671.2898 0.0000 nan 100.00%
0+ 0 nan nan 548.6165 0.0000 nan 100.00%
0 0 304.9439 6 548.6165 304.9439 32 44.42%
0+ 0 nan nan 522.3973 304.9439 nan 41.63%
0+ 0 nan nan 441.6085 304.9439 nan 30.95%
0 2 304.9439 6 441.6085 304.9439 32 30.95%
CPXPARAM_MIP_Cuts_Cliques 0
35
Node Left Objective IInf Best_Integer Best_Bound ItCnt Gap
0+ 0 nan nan 671.2898 0.0000 nan 100.00%
0 0 0 363.5184 363.5184 29 0.00% 0
CPXPARAM_MIP_Cuts_Cliques 0
36
Node Left Objective IInf Best_Integer Best_Bound ItCnt Gap
0+ 0 nan nan 758.0328 0.0000 nan 100.00%
0+ 0 nan nan 643.3001 0.0000 nan 100.00%
0 0 431.0120 7 643.3001 431.0120 48 33.00%
0+ 0 nan nan 591.9356 431.0120 nan 27.19%
0+ 0 nan nan 579.1337 431.0120 nan 25.58%
0+ 0 nan nan 513.0512 431.0120 nan 15.99%
0 2 431.0120 7 513.0512 431.0120 48 15.99%
CPXPARAM_MIP_Cuts_Cliques 0
37
Node Left Objective IInf Best_Integer Best_Bound ItCnt Gap
0+ 0 nan nan 758.0328 0.0000 nan 100.00%
0 0 0 431.0120 431.0120 52 0.00% 0
CPXPARAM_MIP_Cuts_Cliques 0
38
Node Left Objective IInf Best_Integer Best_Bound ItCnt Gap
0+ 0 nan nan 758.0328 0.0000 nan 100.00%
0+ 0 nan nan 644.4799 0.0000 nan 100.00%
0 0 431.2487 6 644.4799 431.2487 42 33.09%
0+ 0 nan nan 591.9356 431.2487 nan 27.15%
0+ 0 nan nan 538.7817 431.2487 nan 19.96%
0+ 0 nan nan 529.8874 431.2487 nan 18.62%
0 2 431.2487 6 529.8874 431.2487 42 18.62%
CPXPARAM_MIP_Cuts_Cliques 0
39
Node Left Objective IInf Best_Integer Best_Bound ItCnt Gap
0+ 0 nan nan 758.0328 0.0000 nan 100.00%
0+ 0 nan nan 451.8439 0.0000 nan 100.00%
0 0 cutoff 451.8439 451.8439 34 0.00%
0 0 cutoff 451.8439 451.8439 34 0.00% 0
CPXPARAM_MIP_Cuts_Cliques 0
